
Gurobi 9.5.2 (mac64[x86]) logging started Wed Mar 22 20:05:17 2023

Set parameter LogFile to value "logFiles/A-2L-60D/A-2L-6U-11F-7V-60D-a-varprod.log"
Gurobi Optimizer version 9.5.2 build v9.5.2rc0 (mac64[x86])
Thread count: 4 physical cores, 8 logical processors, using up to 8 threads
Optimize a model with 5508 rows, 46073 columns and 311598 nonzeros
Model fingerprint: 0x56cb604d
Variable types: 744 continuous, 45329 integer (45329 binary)
Coefficient statistics:
  Matrix range     [1e+00, 2e+05]
  Objective range  [4e+01, 2e+07]
  Bounds range     [1e+00, 1e+00]
  RHS range        [1e+00, 5e+05]
Presolve removed 2900 rows and 7573 columns
Presolve time: 0.61s
Presolved: 2608 rows, 38500 columns, 234877 nonzeros
Variable types: 712 continuous, 37788 integer (37784 binary)

Root relaxation: objective 2.123040e+08, 11890 iterations, 1.80 seconds (2.59 work units)

    Nodes    |    Current Node    |     Objective Bounds      |     Work
 Expl Unexpl |  Obj  Depth IntInf | Incumbent    BestBd   Gap | It/Node Time

     0     0 2.1230e+08    0   81          - 2.1230e+08      -     -    2s
H    0     0                    1.949336e+08 2.1230e+08  8.91%     -    4s
H    0     0                    1.953584e+08 2.1230e+08  8.67%     -    6s
H    0     0                    2.017224e+08 2.1230e+08  5.25%     -    7s
     0     0 2.1228e+08    0   99 2.0172e+08 2.1228e+08  5.23%     -    8s
H    0     0                    2.046408e+08 2.1228e+08  3.73%     -   14s
     0     0 2.1228e+08    0  104 2.0464e+08 2.1228e+08  3.73%     -   15s
     0     0 2.1204e+08    0   89 2.0464e+08 2.1204e+08  3.62%     -   15s
     0     0 2.1204e+08    0   87 2.0464e+08 2.1204e+08  3.61%     -   15s
     0     0 2.1176e+08    0   92 2.0464e+08 2.1176e+08  3.48%     -   15s
     0     0 2.1176e+08    0   90 2.0464e+08 2.1176e+08  3.48%     -   15s
     0     0 2.1170e+08    0   69 2.0464e+08 2.1170e+08  3.45%     -   16s
     0     0 2.1170e+08    0   82 2.0464e+08 2.1170e+08  3.45%     -   16s
     0     0 2.1152e+08    0   72 2.0464e+08 2.1152e+08  3.36%     -   16s
     0     0 2.1152e+08    0   72 2.0464e+08 2.1152e+08  3.36%     -   16s
     0     0 2.1151e+08    0   68 2.0464e+08 2.1151e+08  3.36%     -   17s
     0     0 2.1151e+08    0   69 2.0464e+08 2.1151e+08  3.36%     -   17s
     0     0 2.1151e+08    0   77 2.0464e+08 2.1151e+08  3.36%     -   17s
     0     0 2.1151e+08    0   92 2.0464e+08 2.1151e+08  3.36%     -   17s
     0     0 2.1151e+08    0   84 2.0464e+08 2.1151e+08  3.36%     -   17s
     0     0 2.1151e+08    0   85 2.0464e+08 2.1151e+08  3.36%     -   17s
     0     0 2.1151e+08    0  116 2.0464e+08 2.1151e+08  3.36%     -   18s
     0     0 2.1151e+08    0  110 2.0464e+08 2.1151e+08  3.36%     -   19s
     0     0 2.1148e+08    0   83 2.0464e+08 2.1148e+08  3.34%     -   22s
H    0     0                    2.046553e+08 2.1148e+08  3.33%     -   23s
     0     0 2.1148e+08    0  102 2.0466e+08 2.1148e+08  3.33%     -   24s
H    0     0                    2.046938e+08 2.1148e+08  3.31%     -   28s
H    0     0                    2.053177e+08 2.1148e+08  3.00%     -   28s
H    0     0                    2.053227e+08 2.1148e+08  3.00%     -   28s
     0     0 2.1148e+08    0   90 2.0532e+08 2.1148e+08  3.00%     -   28s
     0     0 2.1148e+08    0   92 2.0532e+08 2.1148e+08  3.00%     -   28s
     0     0 2.1148e+08    0   94 2.0532e+08 2.1148e+08  3.00%     -   29s
     0     0 2.1148e+08    0   84 2.0532e+08 2.1148e+08  3.00%     -   29s
     0     0 2.1148e+08    0   90 2.0532e+08 2.1148e+08  3.00%     -   29s
     0     0 2.1148e+08    0   94 2.0532e+08 2.1148e+08  3.00%     -   30s
     0     0 2.1148e+08    0   94 2.0532e+08 2.1148e+08  3.00%     -   30s
     0     0 2.1148e+08    0   94 2.0532e+08 2.1148e+08  3.00%     -   30s
     0     0 2.1148e+08    0   91 2.0532e+08 2.1148e+08  3.00%     -   31s
     0     0 2.1148e+08    0   93 2.0532e+08 2.1148e+08  3.00%     -   31s
     0     0 2.1148e+08    0   97 2.0532e+08 2.1148e+08  3.00%     -   31s
     0     0 2.1148e+08    0  103 2.0532e+08 2.1148e+08  3.00%     -   31s
     0     0 2.1148e+08    0  110 2.0532e+08 2.1148e+08  3.00%     -   31s
     0     0 2.1148e+08    0  108 2.0532e+08 2.1148e+08  3.00%     -   31s
     0     0 2.1148e+08    0  119 2.0532e+08 2.1148e+08  3.00%     -   31s
     0     0 2.1148e+08    0  126 2.0532e+08 2.1148e+08  3.00%     -   32s
     0     0 2.1148e+08    0  124 2.0532e+08 2.1148e+08  3.00%     -   32s
     0     0 2.1148e+08    0  125 2.0532e+08 2.1148e+08  3.00%     -   32s
     0     0 2.1148e+08    0  127 2.0532e+08 2.1148e+08  3.00%     -   32s
     0     0 2.1148e+08    0  126 2.0532e+08 2.1148e+08  3.00%     -   32s
     0     0 2.1148e+08    0  120 2.0532e+08 2.1148e+08  3.00%     -   33s
     0     2 2.1147e+08    0  114 2.0532e+08 2.1147e+08  3.00%     -   36s
    44    52 2.1130e+08   12   88 2.0532e+08 2.1147e+08  3.00%   116   40s
   159   182 2.1122e+08   33   86 2.0532e+08 2.1147e+08  3.00%  89.1   45s
H  250   255                    2.053642e+08 2.1147e+08  2.98%  71.2   48s
   315   329 2.1119e+08   57   90 2.0536e+08 2.1147e+08  2.98%  71.3   50s
   668   711 2.1115e+08  136   65 2.0536e+08 2.1147e+08  2.98%  53.6   55s
H  792   803                    2.053642e+08 2.1147e+08  2.98%  49.7   59s
   809   870 2.1096e+08  173   51 2.0536e+08 2.1147e+08  2.98%  49.5   60s
  1328  1402 2.1090e+08  291   57 2.0536e+08 2.1147e+08  2.98%  37.5   65s
  1414  1406 2.1088e+08  313   71 2.0536e+08 2.1147e+08  2.98%  36.3   70s
  1953  2075 2.1085e+08  425   61 2.0536e+08 2.1147e+08  2.98%  32.1   75s
  2752  2867 2.1042e+08  545   59 2.0536e+08 2.1147e+08  2.98%  25.5   80s
  3529  3703 2.1029e+08  691   56 2.0536e+08 2.1147e+08  2.98%  22.7   85s
  4575  4679 2.1018e+08  890   60 2.0536e+08 2.1147e+08  2.98%  19.5   91s
  5403  5216 2.1036e+08  885  110 2.0536e+08 2.1147e+08  2.98%  19.2  100s
H 5404  4956                    2.053841e+08 2.1147e+08  2.97%  19.2  104s
  5405  4956 2.1042e+08  516   86 2.0538e+08 2.1147e+08  2.97%  19.2  105s
  5406  4957 2.1106e+08  781   85 2.0538e+08 2.1147e+08  2.97%  19.2  111s
  5411  4960 2.1134e+08  234  108 2.0538e+08 2.1147e+08  2.97%  19.1  115s
  5428  4972 2.1102e+08  972  100 2.0538e+08 2.1143e+08  2.94%  19.1  120s
  5430  4973 2.1105e+08  848   98 2.0538e+08 2.1140e+08  2.93%  19.1  125s
  5433  4980 2.1140e+08   15  104 2.0538e+08 2.1140e+08  2.93%  22.2  131s
  5441  4985 2.1057e+08   16   89 2.0538e+08 2.1140e+08  2.93%  22.9  135s
H 5459  4747                    2.053841e+08 2.1140e+08  2.93%  24.0  148s
  5471  4761 2.1139e+08   20   89 2.0538e+08 2.1140e+08  2.93%  24.4  150s
  5493  4774 2.1140e+08   23   64 2.0538e+08 2.1140e+08  2.93%  24.8  156s
H 5498  4535                    2.053841e+08 2.1140e+08  2.93%  24.8  156s
  5510  4552 2.1140e+08   25   74 2.0538e+08 2.1140e+08  2.93%  25.3  162s
  5523  4559 2.1139e+08   27   67 2.0538e+08 2.1140e+08  2.93%  25.6  166s
  5554  4585 2.1139e+08   30   55 2.0538e+08 2.1140e+08  2.93%  26.7  171s
  5579  4610 2.1138e+08   33   48 2.0538e+08 2.1140e+08  2.93%  27.6  176s
  5641  4627 2.1139e+08   46   24 2.0538e+08 2.1140e+08  2.93%  28.3  180s

Cutting planes:
  Lift-and-project: 7
  Cover: 30
  Implied bound: 3
  Clique: 4
  MIR: 6
  Flow cover: 13
  GUB cover: 3
  Network: 6
  Relax-and-lift: 24

Explored 5665 nodes (190670 simplex iterations) in 180.04 seconds (309.83 work units)
Thread count was 8 (of 8 available processors)

Solution count 10: 2.05384e+08 2.05384e+08 2.05364e+08 ... 2.01722e+08

Time limit reached
Best objective 2.053841466080e+08, best bound 2.114004800302e+08, gap 2.9293%

Gurobi 9.5.2 (mac64[x86]) logging started Fri Apr 21 15:59:37 2023

Set parameter LogFile to value "logFiles/A-2L-60D/A-2L-6U-11F-7V-60D-a-varprod.log"
Gurobi Optimizer version 9.5.2 build v9.5.2rc0 (mac64[x86])
Thread count: 4 physical cores, 8 logical processors, using up to 8 threads
Optimize a model with 5508 rows, 46073 columns and 311598 nonzeros
Model fingerprint: 0xa5c42433
Variable types: 744 continuous, 45329 integer (45329 binary)
Coefficient statistics:
  Matrix range     [1e+00, 2e+05]
  Objective range  [4e+01, 2e+07]
  Bounds range     [1e+00, 1e+00]
  RHS range        [1e+00, 5e+05]
Presolve removed 2900 rows and 7573 columns
Presolve time: 0.82s
Presolved: 2608 rows, 38500 columns, 234877 nonzeros
Variable types: 712 continuous, 37788 integer (37784 binary)

Root relaxation: objective 2.123040e+08, 11890 iterations, 2.41 seconds (2.59 work units)

    Nodes    |    Current Node    |     Objective Bounds      |     Work
 Expl Unexpl |  Obj  Depth IntInf | Incumbent    BestBd   Gap | It/Node Time

     0     0 2.1230e+08    0   81          - 2.1230e+08      -     -    3s
H    0     0                    1.949336e+08 2.1230e+08  8.91%     -    6s
H    0     0                    1.953584e+08 2.1230e+08  8.67%     -    9s
H    0     0                    2.017224e+08 2.1230e+08  5.25%     -   10s
     0     0 2.1228e+08    0   99 2.0172e+08 2.1228e+08  5.23%     -   11s
H    0     0                    2.046408e+08 2.1228e+08  3.73%     -   20s
     0     0 2.1228e+08    0  104 2.0464e+08 2.1228e+08  3.73%     -   20s
     0     0 2.1204e+08    0   89 2.0464e+08 2.1204e+08  3.62%     -   21s
     0     0 2.1204e+08    0   87 2.0464e+08 2.1204e+08  3.61%     -   21s
     0     0 2.1176e+08    0   92 2.0464e+08 2.1176e+08  3.48%     -   22s
     0     0 2.1176e+08    0   90 2.0464e+08 2.1176e+08  3.48%     -   22s
     0     0 2.1170e+08    0   69 2.0464e+08 2.1170e+08  3.45%     -   22s
     0     0 2.1170e+08    0   82 2.0464e+08 2.1170e+08  3.45%     -   22s
     0     0 2.1152e+08    0   72 2.0464e+08 2.1152e+08  3.36%     -   23s
     0     0 2.1152e+08    0   72 2.0464e+08 2.1152e+08  3.36%     -   23s
     0     0 2.1151e+08    0   68 2.0464e+08 2.1151e+08  3.36%     -   24s
     0     0 2.1151e+08    0   69 2.0464e+08 2.1151e+08  3.36%     -   24s
     0     0 2.1151e+08    0   77 2.0464e+08 2.1151e+08  3.36%     -   24s
     0     0 2.1151e+08    0   92 2.0464e+08 2.1151e+08  3.36%     -   24s
     0     0 2.1151e+08    0   84 2.0464e+08 2.1151e+08  3.36%     -   25s
     0     0 2.1151e+08    0   85 2.0464e+08 2.1151e+08  3.36%     -   25s
     0     0 2.1151e+08    0  116 2.0464e+08 2.1151e+08  3.36%     -   25s
     0     0 2.1151e+08    0  110 2.0464e+08 2.1151e+08  3.36%     -   27s
     0     0 2.1148e+08    0   83 2.0464e+08 2.1148e+08  3.34%     -   31s
H    0     0                    2.046553e+08 2.1148e+08  3.33%     -   33s
     0     0 2.1148e+08    0  102 2.0466e+08 2.1148e+08  3.33%     -   34s
H    0     0                    2.046938e+08 2.1148e+08  3.31%     -   39s
H    0     0                    2.053177e+08 2.1148e+08  3.00%     -   39s
H    0     0                    2.053227e+08 2.1148e+08  3.00%     -   39s
     0     0 2.1148e+08    0   90 2.0532e+08 2.1148e+08  3.00%     -   40s
     0     0 2.1148e+08    0   92 2.0532e+08 2.1148e+08  3.00%     -   40s
     0     0 2.1148e+08    0   94 2.0532e+08 2.1148e+08  3.00%     -   40s
     0     0 2.1148e+08    0   84 2.0532e+08 2.1148e+08  3.00%     -   40s
     0     0 2.1148e+08    0   90 2.0532e+08 2.1148e+08  3.00%     -   41s
     0     0 2.1148e+08    0   94 2.0532e+08 2.1148e+08  3.00%     -   41s
     0     0 2.1148e+08    0   94 2.0532e+08 2.1148e+08  3.00%     -   41s
     0     0 2.1148e+08    0   94 2.0532e+08 2.1148e+08  3.00%     -   42s
     0     0 2.1148e+08    0   91 2.0532e+08 2.1148e+08  3.00%     -   43s
     0     0 2.1148e+08    0   93 2.0532e+08 2.1148e+08  3.00%     -   43s
     0     0 2.1148e+08    0   97 2.0532e+08 2.1148e+08  3.00%     -   43s
     0     0 2.1148e+08    0  103 2.0532e+08 2.1148e+08  3.00%     -   43s
     0     0 2.1148e+08    0  110 2.0532e+08 2.1148e+08  3.00%     -   43s
     0     0 2.1148e+08    0  108 2.0532e+08 2.1148e+08  3.00%     -   44s
     0     0 2.1148e+08    0  119 2.0532e+08 2.1148e+08  3.00%     -   44s
     0     0 2.1148e+08    0  126 2.0532e+08 2.1148e+08  3.00%     -   44s
     0     0 2.1148e+08    0  124 2.0532e+08 2.1148e+08  3.00%     -   44s
     0     0 2.1148e+08    0  125 2.0532e+08 2.1148e+08  3.00%     -   44s
     0     0 2.1148e+08    0  127 2.0532e+08 2.1148e+08  3.00%     -   44s
     0     0 2.1148e+08    0  126 2.0532e+08 2.1148e+08  3.00%     -   45s
     0     0 2.1148e+08    0  120 2.0532e+08 2.1148e+08  3.00%     -   47s
     0     2 2.1147e+08    0  114 2.0532e+08 2.1147e+08  3.00%     -   50s
    23    29 2.1130e+08    7  100 2.0532e+08 2.1147e+08  3.00%   170   55s
   103   112 2.1126e+08   24   75 2.0532e+08 2.1147e+08  3.00%  95.7   60s
   215   228 2.1121e+08   44   94 2.0532e+08 2.1147e+08  3.00%  76.5   65s
H  250   255                    2.053642e+08 2.1147e+08  2.98%  71.2   69s
   272   296 2.1120e+08   52   91 2.0536e+08 2.1147e+08  2.98%  72.6   70s
   397   426 2.1118e+08   75   83 2.0536e+08 2.1147e+08  2.98%  73.2   75s
   611   662 2.1115e+08  129   64 2.0536e+08 2.1147e+08  2.98%  56.4   80s
   778   803 2.1114e+08  168   69 2.0536e+08 2.1147e+08  2.98%  49.1   87s
H  792   803                    2.053642e+08 2.1147e+08  2.98%  49.7   87s
   954  1023 2.1098e+08  202   50 2.0536e+08 2.1147e+08  2.98%  44.5   90s
  1328  1402 2.1090e+08  291   57 2.0536e+08 2.1147e+08  2.98%  37.5   95s
